SPARKNaCl/why3-z3/sparknacl-sign.adb_719_7_precondition6_1.smt2
;; produced by z3_gnatprove.drv ;;
(set-info :smt-lib-version 2.5)
(set-info :source |VC generated by SPARK 2014|)
(set-info :category industrial)
(set-info :status unknown)
;;; generated by SMT-LIB2 driver
;;; SMT-LIB2 driver: bit-vectors, common part
;;; SMT-LIB2: integer arithmetic
(declare-sort i64 0)

;; "i64'int"
(declare-fun i64qtint (i64) Int)

;; "i64'axiom"
(assert
  (forall ((i i64))
    (and
      (<= (- 9223372036854775808) (i64qtint i))
      (<= (i64qtint i) 9223372036854775807))))

;; "in_range"
(define-fun in_range ((x Int)) Bool
  (and (<= (- 9223372036854775808) x) (<= x 9223372036854775807)))

;; "to_rep"
(define-fun to_rep ((x i64)) Int
  (i64qtint x))

;; "of_rep"
(declare-fun of_rep (Int) i64)

;; "inversion_axiom"
(assert
  (forall ((x i64)) (! (= (of_rep (to_rep x)) x) :pattern ((to_rep x)) )))

;; "range_axiom"
(assert (forall ((x i64)) (! (in_range (to_rep x)) :pattern ((to_rep x)) )))

;; "coerce_axiom"
(assert
  (forall ((x Int))
    (! (=> (in_range x) (= (to_rep (of_rep x)) x)) :pattern ((to_rep
                                                               (of_rep x))) )))

(declare-sort map1 0)

;; "has_bounds"
(declare-fun has_bounds (map1
  Int
  Int) Bool)

;; "get"
(declare-fun get (map1
  Int) i64)

(declare-const x map1)

(declare-sort xl_limb 0)

;; "xl_limb'int"
(declare-fun xl_limbqtint (xl_limb) Int)

;; "xl_limb'axiom"
(assert
  (forall ((i xl_limb))
    (and
      (<= (- 33299444949360) (xl_limbqtint i))
      (<= (xl_limbqtint i) 33299444949360))))

;; "in_range"
(define-fun in_range1 ((x1 Int)) Bool
  (and (<= (- 33299444949360) x1) (<= x1 33299444949360)))

;; "to_rep"
(define-fun to_rep1 ((x1 xl_limb)) Int
  (xl_limbqtint x1))

;; "of_rep"
(declare-fun of_rep1 (Int) xl_limb)

;; "inversion_axiom"
(assert
  (forall ((x1 xl_limb))
    (! (= (of_rep1 (to_rep1 x1)) x1) :pattern ((to_rep1 x1)) )))

;; "range_axiom"
(assert
  (forall ((x1 xl_limb))
    (! (in_range1 (to_rep1 x1)) :pattern ((to_rep1 x1)) )))

;; "coerce_axiom"
(assert
  (forall ((x1 Int))
    (! (=> (in_range1 x1) (= (to_rep1 (of_rep1 x1)) x1)) :pattern ((to_rep1
                                                                    (of_rep1
                                                                    x1))) )))

(declare-sort map2 0)

(declare-datatypes ()
  ((map__ref (map__refqtmk (map__content map2)))))

;; "has_bounds"
(declare-fun has_bounds1 (map2
  Int
  Int) Bool)

;; "get"
(declare-fun get1 (map2
  Int) xl_limb)

(declare-sort byte 0)

;; "to_rep"
(declare-fun to_rep2 (byte) (_ BitVec 8))

;; "of_rep"
(declare-fun of_rep2 ((_ BitVec 8)) byte)

;; "inversion_axiom"
(assert
  (forall ((x1 byte))
    (! (= (of_rep2 (to_rep2 x1)) x1) :pattern ((to_rep2 x1)) )))

;; "range_axiom"
(assert true)

;; "coerce_axiom"
(assert
  (forall ((x1 (_ BitVec 8)))
    (! (= (to_rep2 (of_rep2 x1)) x1) :pattern ((to_rep2 (of_rep2 x1))) )))

(declare-sort map3 0)

(declare-datatypes ()
  ((map__ref1 (map__refqtmk1 (map__content1 map3)))))

;; "has_bounds"
(declare-fun has_bounds2 (map3
  Int
  Int) Bool)

;; "in_range"
(define-fun in_range2 ((x1 Int)) Bool
  (and (<= (- 128) x1) (<= x1 127)))

;; "in_range"
(define-fun in_range3 ((x1 Int)) Bool
  (and (<= 0 x1) (<= x1 2089216)))

(declare-const xl map2)

(declare-const r map3)

;; "r'unused"
(define-fun rqtunused () map__ref1
  (map__refqtmk1 r))

;; "xl'unused"
(define-fun xlqtunused () map__ref
  (map__refqtmk xl))

;; "Assume"
(assert (has_bounds x 0 63))

;; "Assume"
(assert
  (forall ((k Int))
    (=>
      (and (<= 0 k) (<= k 63))
      (let ((temp___1892 (to_rep (get x k))))
        (and (<= 0 temp___1892) (<= temp___1892 2081055))))))

;; "Assume"
(assert true)

;; "Assume"
(assert (has_bounds1 xl 0 63))

;; "Assume"
(assert true)

;; "Assume"
(assert (has_bounds2 r 0 31))

(declare-const xl1 map2)

;; "xl'unused"
(define-fun xlqtunused1 () map__ref
  (map__refqtmk xl1))

;; "H"
(assert
  (forall ((k Int))
    (=> (and (<= 0 k) (<= k 63)) (<= 0 (to_rep1 (get1 xl1 k))))))

;; "H"
(assert
  (forall ((k Int))
    (=> (and (<= 0 k) (<= k 63)) (<= (to_rep1 (get1 xl1 k)) 2081055))))

;; "H"
(assert
  (forall ((k Int))
    (=>
      (and (<= 0 k) (<= k 63))
      (= (to_rep1 (get1 xl1 k)) (to_rep (get x k))))))

;; "H"
(assert (has_bounds1 xl1 0 63))

;; "H"
(assert true)

;; "H"
(assert true)

(declare-const xl2 map2)

;; "xl'unused"
(define-fun xlqtunused2 () map__ref
  (map__refqtmk xl2))

;; "H"
(assert
  (forall ((k Int))
    (=>
      (and (<= 0 k) (<= k 30))
      (= (to_rep1 (get1 xl2 k)) (to_rep (get x k))))))

;; "H"
(assert
  (forall ((k Int))
    (=> (and (<= 31 k) (<= k 50)) (in_range2 (to_rep1 (get1 xl2 k))))))

;; "H"
(assert (in_range3 (to_rep1 (get1 xl2 51))))

;; "H"
(assert
  (forall ((k Int))
    (=>
      (and (<= 52 k) (<= k 62))
      (= (to_rep1 (get1 xl2 k)) (to_rep (get x k))))))

;; "H"
(assert (= (to_rep1 (get1 xl2 63)) 0))

;; "H"
(assert (has_bounds1 xl2 0 63))

;; "H"
(assert true)

;; "H"
(assert true)

;; Goal "def'vc"
;; File "sparknacl-sign.adb", line 54, characters 0-0
(assert
  (not (<= 0 (to_rep1 (get1 xl2 51)))))

(check-sat)
